(set-info :smt-lib-version 2.6)
(set-logic QF_S)
(set-info :source |
Generated by: Hung-En Wang, Tzung-Lin Tsai, Chun-Han Lin, Fang Yu, and Jie-Hong R. Jiang
Generated on: 2019-02-28
Generator: Stranger
Application: Security analysis of string manipulating web applications
Target solver: CVC4, Norn, Z3-str2
Publication:
Hung-En Wang, Tzung-Lin Tsai, Chun-Han Lin, Fang Yu, Jie-Hong R. Jiang:
String Analysis via Automata Manipulation with Logic Circuit Representation. CAV (1) 2016: 241-260.
|)
(set-info :license "https://creativecommons.org/licenses/by/4.0/")
(set-info :category "industrial")
(set-info :status unknown)

(declare-fun sigmaStar_0 () String)
(declare-fun sigmaStar_1 () String)
(declare-fun literal_2 () String)
(declare-fun x_3 () String)
(declare-fun literal_4 () String)
(declare-fun x_5 () String)
(declare-fun x_6 () String)
(declare-fun literal_7 () String)
(declare-fun x_8 () String)
(assert (= literal_2 "\u{3c}\u{73}\u{63}\u{72}\u{69}\u{70}\u{74}\u{20}\u{74}\u{79}\u{70}\u{65}\u{3d}\u{27}\u{74}\u{65}\u{78}\u{74}\u{2f}\u{6a}\u{61}\u{76}\u{61}\u{73}\u{63}\u{72}\u{69}\u{70}\u{74}\u{27}\u{3e}\u{0d}\u{0a}\u{66}\u{75}\u{6e}\u{63}\u{74}\u{69}\u{6f}\u{6e}\u{20}\u{44}\u{65}\u{6c}\u{65}\u{74}\u{65}\u{50}\u{61}\u{67}\u{65}\u{28}\u{29}\u{20}\u{7b}\u{0d}\u{0a}\u{09}\u{72}\u{65}\u{74}\u{75}\u{72}\u{6e}\u{20}\u{63}\u{6f}\u{6e}\u{66}\u{69}\u{72}\u{6d}\u{28}\u{27}"))
(assert (= x_3 (str.++ literal_2 sigmaStar_0)))
(assert (= literal_4 "\u{27}\u{29}\u{3b}\u{0d}\u{0a}\u{7d}\u{0d}\u{0a}\u{66}\u{75}\u{6e}\u{63}\u{74}\u{69}\u{6f}\u{6e}\u{20}\u{56}\u{61}\u{6c}\u{69}\u{64}\u{61}\u{74}\u{65}\u{46}\u{6f}\u{72}\u{6d}\u{28}\u{66}\u{72}\u{6d}\u{29}\u{20}\u{7b}\u{0d}\u{0a}\u{09}\u{69}\u{66}\u{28}\u{66}\u{72}\u{6d}\u{2e}\u{70}\u{61}\u{67}\u{65}\u{5f}\u{74}\u{69}\u{74}\u{6c}\u{65}\u{2e}\u{76}\u{61}\u{6c}\u{75}\u{65}\u{3d}\u{3d}\u{27}\u{27}\u{29}\u{20}\u{7b}\u{0d}\u{0a}\u{09}\u{09}\u{61}\u{6c}\u{65}\u{72}\u{74}\u{28}\u{27}"))
(assert (= x_5 (str.++ x_3 literal_4)))
(assert (= x_6 (str.++ x_5 sigmaStar_1)))
(assert (= literal_7 "\u{27}\u{29}\u{3b}\u{0d}\u{0a}\u{09}\u{09}\u{72}\u{65}\u{74}\u{75}\u{72}\u{6e}\u{20}\u{66}\u{61}\u{6c}\u{73}\u{65}\u{3b}\u{0d}\u{0a}\u{09}\u{7d}\u{0d}\u{0a}\u{7d}\u{0d}\u{0a}\u{3c}\u{2f}\u{73}\u{63}\u{72}\u{69}\u{70}\u{74}\u{3e}\u{5c}\u{6e}"))
(assert (= x_8 (str.++ x_6 literal_7)))
(assert (str.in_re x_8 (re.++ (re.* re.allchar) (re.++ (str.to_re "\u{5c}\u{3c}\u{53}\u{43}\u{52}\u{49}\u{50}\u{54}") (re.* re.allchar)))))
(check-sat)
(exit)
